(set-option :produce-models true)
(set-logic QF_UF)
(declare-fun p16() Bool)
(declare-fun p17() Bool)
(declare-fun p10() Bool)
(declare-fun p25() Bool)
(declare-fun p57() Bool)
(declare-fun p33() Bool)
(declare-fun p42() Bool)
(declare-fun p28() Bool)
(declare-fun p53() Bool)
(declare-fun p12() Bool)
(declare-fun p24() Bool)
(declare-fun p31() Bool)
(declare-fun p11() Bool)
(declare-fun p59() Bool)
(declare-fun p51() Bool)
(declare-fun p48() Bool)
(declare-fun p52() Bool)
(declare-fun p49() Bool)
(declare-fun p14() Bool)
(declare-fun p5() Bool)
(declare-fun p38() Bool)
(declare-fun p0() Bool)
(declare-fun p6() Bool)
(declare-fun p43() Bool)
(declare-fun p37() Bool)
(declare-fun p47() Bool)
(declare-fun p9() Bool)
(declare-fun p19() Bool)
(declare-fun p8() Bool)
(declare-fun p13() Bool)
(declare-fun p30() Bool)
(declare-fun p4() Bool)
(declare-fun p7() Bool)
(declare-fun p44() Bool)
(declare-fun p26() Bool)
(declare-fun p22() Bool)
(declare-fun p56() Bool)
(declare-fun p20() Bool)
(declare-fun p2() Bool)
(declare-fun p18() Bool)
(declare-fun p27() Bool)
(declare-fun p40() Bool)
(declare-fun p21() Bool)
(declare-fun p54() Bool)
(declare-fun p36() Bool)
(declare-fun p45() Bool)
(declare-fun p1() Bool)
(declare-fun p50() Bool)
(declare-fun p34() Bool)
(declare-fun p55() Bool)
(declare-fun p58() Bool)
(declare-fun p23() Bool)
(declare-fun p41() Bool)
(declare-fun p29() Bool)
(declare-fun p15() Bool)
(declare-fun p35() Bool)
(declare-fun p32() Bool)
(declare-fun p46() Bool)
(declare-fun p39() Bool)
(declare-fun p3() Bool)
(assert
(and (or p16 (not p17) (not p10)) (or (not p25) p57 p33) (or (not p42) p28 (not p53)) (or p16 p12 p24) (or p31 p11 p59) (or p51 p24 p48) (or (not p52) (not p49) (not p14)) (or (not p5) p38 p11) (or p0 p6 p52) (or p16 (not p43) p37) (or p59 p47 (not p9)) (or p19 p8 (not p6)) (or (not p13) (not p30) (not p47)) (or p4 p9 (not p13)) (or (not p7) (not p44) (not p10)) (or (not p26) p22 (not p28)) (or p28 (not p44) p28) (or (not p56) p33 p0) (or p20 p2 p33) (or (not p18) p48 p51) (or p56 (not p19) p8) (or p6 (not p27) p48) (or (not p40) p57 (not p21)) (or (not p54) (not p18) (not p13)) (or p36 p4 p0) (or p18 p11 (not p45)) (or p1 p50 p10) (or (not p22) p49 (not p6)) (or p21 (not p44) (not p30)) (or p2 (not p6) p5) (or p30 (not p9) (not p59)) (or p43 (not p43) (not p33)) (or p34 p5 (not p55)) (or (not p58) p49 (not p23)) (or (not p4) (not p28) (not p25)) (or (not p47) (not p30) p55) (or (not p5) p51 (not p51)) (or (not p28) p6 p23) (or (not p13) p56 p7) (or p37 p41 (not p17)) (or p33 p49 p50) (or (not p18) p19 (not p41)) (or (not p58) p49 (not p2)) (or (not p23) (not p33) p6) (or (not p43) (not p57) p19) (or p18 (not p29) p28) (or (not p58) (not p37) (not p28)) (or p47 p47 p5) (or (not p6) p49 (not p20)) (or p41 p15 (not p34)) (or (not p15) (not p42) (not p54)) (or (not p9) p35 (not p5)) (or p36 (not p44) p33) (or (not p8) (not p45) p17) (or (not p53) p35 (not p40)) (or p6 p8 (not p22)) (or p42 (not p1) (not p30)) (or (not p32) p37 p57) (or p17 (not p29) (not p26)) (or p46 (not p39) p17) (or p28 p10 (not p24)) (or p21 (not p22) p49) (or (not p0) p15 p8) (or p43 (not p14) (not p44)) (or (not p26) (not p45) (not p24)) (or (not p57) (not p24) p57) (or (not p38) (not p11) p58) (or p42 (not p14) (not p3)) (or (not p42) (not p44) p0) (or (not p15) p25 (not p5)) (or (not p50) (not p23) p6) (or (not p24) (not p9) (not p12)) (or p43 (not p39) p34) (or p27 (not p41) p52) (or p12 (not p21) (not p47)) (or p2 p18 (not p38)) (or p44 p28 (not p39)) (or p30 (not p8) p44) (or p10 p15 (not p40)) (or p58 (not p15) p49) (or p15 p27 p17) (or p10 p5 (not p38)) (or p59 p47 p6) (or (not p10) p45 (not p42)) (or (not p41) p56 (not p34)) (or p4 (not p36) p59) (or (not p1) (not p43) p43) (or (not p27) p12 p13) (or p15 (not p26) (not p41)) (or (not p14) (not p18) (not p30)) (or (not p31) p57 (not p56)) (or p19 p42 (not p56)) (or (not p9) (not p26) p46) (or (not p28) p48 (not p53)) (or p8 p15 p50) (or (not p4) (not p39) (not p35)) (or p59 p45 p45) (or p48 (not p37) p54) (or p43 (not p25) (not p41)) (or p48 p46 p40) (or (not p18) (not p38) p11) (or (not p33) (not p6) (not p26)) (or p16 (not p55) p45) (or p54 (not p13) (not p58)) (or p2 p44 (not p26)) (or (not p34) (not p52) p1) (or (not p15) (not p27) p25) (or p32 p51 p49) (or p46 p36 p36) (or (not p51) p9 (not p42)) (or (not p25) (not p8) (not p10)) (or p12 (not p19) (not p39)) (or (not p56) (not p31) p28) (or (not p9) (not p20) (not p52)) (or (not p16) (not p42) (not p30)) (or p41 (not p15) (not p37)) (or (not p31) p23 p38) (or (not p52) p58 (not p46)) (or p48 p10 p12) (or (not p25) (not p51) p18) (or p54 (not p57) p28) (or (not p28) p46 (not p7)) (or (not p12) p49 p9) (or p8 (not p44) (not p57)) (or (not p7) p16 (not p9)) (or p27 p34 (not p17)) (or (not p5) (not p25) (not p4)) (or p13 p53 (not p44)) (or p2 p52 p33) (or p29 (not p17) p55) (or p31 (not p27) p1) (or p14 (not p11) p49) (or p57 p26 (not p27)) (or p46 (not p16) p23) (or p7 (not p57) p22) (or p32 p54 (not p0)) (or (not p13) p39 p57) (or (not p18) (not p44) p25) (or p25 p35 p40) (or p12 (not p8) p47) (or (not p55) (not p51) p54) (or p18 p35 (not p31)) (or p47 p37 p19) (or (not p36) (not p38) (not p45)) (or (not p36) (not p17) (not p29)) (or p36 (not p23) (not p2)) (or (not p2) (not p46) p42) (or p41 (not p27) p38) (or (not p10) (not p58) (not p17)) (or (not p44) p16 p7) (or p9 p44 p10) (or p9 (not p29) p5) (or p24 (not p36) (not p37)) (or p47 (not p34) p16) (or p21 p53 (not p44)) (or (not p23) p20 p8) (or p29 p24 p55) (or p57 p26 (not p37)) (or p36 (not p48) p46) (or (not p59) p28 p5) (or p34 p3 (not p2)) (or p50 (not p38) p23) (or (not p26) (not p12) p7) (or p36 p54 p17) (or (not p14) (not p2) p4) (or p41 p57 (not p2)) (or p14 p55 p51) (or p29 (not p43) p30) (or (not p52) (not p1) p46) (or (not p41) (not p2) p32) (or (not p21) p14 p43) (or p0 (not p25) (not p56)) (or (not p57) (not p47) (not p35)) (or (not p34) (not p57) (not p45)) (or p38 (not p7) (not p5)) (or (not p46) p41 (not p53)) (or (not p59) p20 (not p44)) (or p13 (not p26) p19) (or (not p10) p15 (not p53)) (or p4 (not p27) p22) (or (not p45) p40 p11) (or (not p17) p30 p16) (or p9 (not p29) (not p57)) (or (not p22) p17 p5) (or p0 (not p3) (not p42)) (or p45 p56 p14) (or p19 p42 p47) (or p26 (not p57) (not p19)) (or p27 (not p50) p19) (or p10 p10 p9) (or p45 (not p22) p8) (or (not p20) p5 p8) (or p16 (not p14) p38) (or p54 (not p14) p50) (or p17 p49 (not p3)) (or (not p46) p25 (not p27)) (or (not p15) (not p4) (not p3)) (or (not p51) p47 p56) (or (not p38) (not p10) p11) (or p33 p25 (not p44)) (or (not p40) (not p21) p54) (or (not p38) (not p17) (not p40)) (or p39 p36 (not p55)) (or p30 (not p38) p33) (or (not p21) p51 p33) (or (not p24) (not p36) (not p2)) (or (not p4) (not p4) p58) (or p50 p48 p36) (or p34 (not p49) p49) (or (not p59) p46 (not p13)) (or p58 (not p22) p45) (or p16 p17 (not p4)) (or p58 p24 p34) (or (not p27) (not p36) (not p22)) (or (not p40) p53 (not p1)) (or (not p28) p35 (not p27)) (or (not p6) p56 (not p20)) (or (not p31) (not p43) p17) (or p8 (not p47) p11) (or (not p6) (not p53) (not p52)) (or p24 (not p19) p26) (or p23 p8 p9) (or p7 (not p37) p54) (or (not p54) (not p16) (not p18)) (or (not p42) p36 p3) (or (not p4) p1 p10) (or (not p15) (not p9) p8) (or (not p52) (not p14) p40) (or (not p34) (not p3) p52) (or (not p55) p27 (not p54)) (or p6 (not p33) (not p58)) (or (not p16) (not p39) (not p6)) (or p40 (not p32) p54) (or p29 (not p41) (not p56)) (or (not p35) (not p36) p28) (or (not p30) (not p4) p33) (or (not p7) p55 (not p16)) (or p19 p40 (not p0)) (or p5 (not p41) (not p29)) (or p5 (not p45) (not p2)) (or (not p48) p0 (not p0)) (or p33 (not p6) (not p48)) (or p24 p3 (not p47)) (or p58 p47 p0) (or p23 p4 (not p35)) (or (not p13) p49 p42) (or (not p18) (not p56) p50) (or (not p28) (not p36) p27) (or (not p59) p17 (not p40)) (or (not p2) p36 (not p28)) (or p6 p44 p35) (or (not p43) p10 p46))
)
(check-sat)
(get-model)
